p ocr 20 20 40
7 33
13 37
4 28
18 21
20 21
20 27
15 37
10 26
18 36
10 32
9 36
11 39
19 28
8 31
16 38
5 23
15 30
6 36
14 25
3 22
20 38
11 35
16 25
17 24
3 31
14 31
1 40
8 30
16 31
4 32
4 29
5 37
9 22
18 40
12 27
1 33
2 34
3 27
3 33
19 29
